[runlim] version:		1.10
[runlim] time limit:		311040000 seconds
[runlim] real time limit:	900 seconds
[runlim] space limit:		6000 MB
[runlim] argv[0]:		python3
[runlim] argv[1]:		cp.py
[runlim] argv[2]:		TUD916.3
[runlim] start:			Sun Jan 18 16:44:14 2026
[runlim] main pid:		734
[runlim] sample:		9.9 time, 10.4 real, 608.3 MB
[runlim] sample:		19.8 time, 20.0 real, 1914.6 MB
Building CP model...
Build time: 8.00s
Solving CP Optimizer...
 ! --------------------------------------------------- CP Optimizer 22.1.1.0 --
 ! Minimization problem - 35352 variables, 874341 constraints
 ! Presolve      : 875259 extractables eliminated
 ! LogVerbosity         = Terse
 ! Initial process time : 9.17s (9.13s extraction + 0.04s propagation)
 !  . Log search space  : 35352.0 (before), 35352.0 (after)
 !  . Memory usage      : 135.2 MB (before), 135.2 MB (after)
 ! Using parallel search with 12 workers.
 ! ----------------------------------------------------------------------------
 !          Best Branches  Non-fixed    W       Branch decision
                        0      35352                 -
 + New bound is 0
[runlim] sample:		64.3 time, 30.0 real, 4525.7 MB
[runlim] end:			Sun Jan 18 16:44:44 2026
[runlim] status:		out of memory
[runlim] result:		3
[runlim] children:		225
[runlim] real:			30.51 seconds
[runlim] time:			70.18 seconds
[runlim] space:			6136.5 MB
[runlim] samples:		305
